(set-logic QF_AX)
(set-info :status unsat)
(declare-sort I 0)
(declare-sort E 0)
(declare-fun a () (Array I E))
(declare-fun a2 () (Array I E))
(declare-fun i () I)
(declare-fun i2 () I)
(assert (= (store (store a i (select a2 i)) i2 (select (store a2 i (select a i2)) i2)) (store (store a2 i (select a i)) i2 (select (store a i (select a2 i2)) i2))))
(assert (not (= a a2)))
(check-sat)
